rehearsal = [[1,0,1,0,0,1,0,1,1,1], [0,1,1,1,1,1,1,1,1,1], [0,1,1,0,0,0,1,1,1,1], [0,1,1,1,0,1,1,0,1,0], [1,0,0,0,1,1,1,0,1,1], [1,1,1,1,0,1,1,1,1,0], [0,1,0,0,0,1,1,1,0,0], [1,1,1,0,1,0,1,1,1,0], [1,1,1,1,1,0,1,1,0,1], [1,0,0,0,0,1,0,0,1,0], [0,0,1,0,0,1,0,0,1,1], [1,0,0,0,0,1,1,1,1,1], [1,1,1,1,1,1,1,1,1,1], [1,0,1,1,1,0,1,1,1,1], [0,1,0,1,1,1,0,1,1,1], [1,0,1,1,0,1,0,1,1,0], [1,1,1,1,0,1,1,1,0,0], [1,1,1,1,0,1,1,1,1,1], [1,1,0,0,1,1,1,0,0,0], [1,1,1,1,1,1,1,1,1,0], [1,0,1,1,1,1,0,0,1,1], [0,0,0,1,1,0,0,1,1,1], [0,0,0,0,0,0,1,1,1,0], [1,0,0,0,1,0,1,1,0,1], [0,1,0,0,1,1,1,0,0,0], [0,1,0,0,1,1,1,1,0,1], [0,1,1,1,1,1,1,1,0,1], [1,0,1,1,0,0,1,1,1,1], [1,1,1,1,1,0,0,1,1,1], [1,1,1,0,1,1,1,0,0,0], [0,0,1,1,0,1,1,0,1,1], [1,0,1,0,0,0,1,1,1,1], [1,1,1,1,0,1,1,0,1,0], [1,1,0,0,1,1,1,1,1,1], [0,1,0,0,1,0,1,1,1,1], [1,0,1,1,1,1,1,0,0,0], [1,0,0,1,1,0,1,0,0,1], [0,0,1,0,1,1,0,1,1,1], [1,1,0,0,0,1,1,0,0,1], [0,0,0,1,1,0,1,0,0,1], [0,1,1,1,0,1,0,1,1,1], [1,0,1,0,0,1,1,0,1,1], [1,1,1,1,1,0,0,0,1,0], [0,0,0,1,1,0,1,0,1,1], [1,0,0,1,1,1,1,0,0,0], [1,1,0,1,1,1,0,0,0,1], [0,1,1,0,0,1,1,0,1,1], [1,1,1,0,0,0,1,1,1,0], [1,1,0,1,1,1,0,1,0,0], [1,1,1,1,0,1,1,1,1,0]];
permutations = [6,1,3,2,7,5,10,9,4,8];